*************************************************************

   NEOS Server Version 6.0
   Job#     : 15789494
   Password : CRPtNUIe
   User     :
   Solver   : lp:Gurobi:LP
   Start    : 2025-03-24 17:49:32
   End      : 2025-03-24 17:49:40
   Host     : prod-sub-1.neos-server.org

   Disclaimer:

   This information is provided without any express or
   implied warranty. In particular, there is no warranty
   of any kind concerning the fitness of this
   information for any particular purpose.

   Announcements:
*************************************************************
Set parameter TokenServer to value "opt-license.discovery.wisc.edu"
Read LP format model from file model.lp
Reading time = 0.01 seconds
breaks: 1087 rows, 2130 columns, 12354 nonzeros


Checking threads settings... (NEOS allows a maximum of 4 threads)
Set parameter Threads to value 4
Gurobi Optimizer version 11.0.3 build v11.0.3rc0 (linux64 - "Rocky Linux 8.10 (Green Obsidian)")

CPU model: Intel(R) Xeon(R) Gold 5218 CPU @ 2.30GHz, instruction set [SSE2|AVX|AVX2|AVX512]
Thread count: 32 physical cores, 64 logical processors, using up to 4 threads

Optimize a model with 1087 rows, 2130 columns and 12354 nonzeros
Model fingerprint: 0xc4f50876
Variable types: 0 continuous, 2130 integer (0 binary)
Coefficient statistics:
  Matrix range     [1e+00, 1e+00]
  Objective range  [1e+00, 2e+00]
  Bounds range     [1e+00, 1e+00]
  RHS range        [1e+00, 1e+01]
Presolve removed 582 rows and 12 columns
Presolve time: 0.03s
Presolved: 505 rows, 2118 columns, 9432 nonzeros
Variable types: 0 continuous, 2118 integer (2118 binary)

Root relaxation: objective 1.000000e+01, 1395 iterations, 0.11 seconds (0.09 work units)

    Nodes    |    Current Node    |     Objective Bounds      |     Work
 Expl Unexpl |  Obj  Depth IntInf | Incumbent    BestBd   Gap | It/Node Time

     0     0   10.00000    0  192          -   10.00000      -     -    0s
     0     0   10.00000    0  307          -   10.00000      -     -    0s
     0     0   10.00000    0  324          -   10.00000      -     -    1s
     0     0   10.00000    0  364          -   10.00000      -     -    1s
     0     0   10.00000    0  253          -   10.00000      -     -    1s
     0     0   10.00000    0  342          -   10.00000      -     -    2s
     0     0   10.00000    0  361          -   10.00000      -     -    2s
     0     0   10.00000    0  173          -   10.00000      -     -    2s
     0     0   10.00000    0  173          -   10.00000      -     -    2s
     0     0   10.00000    0  253          -   10.00000      -     -    2s
H    0     0                      10.0000000   10.00000  0.00%     -    3s
     0     0   10.00000    0  100   10.00000   10.00000  0.00%     -    3s

Cutting planes:
  Clique: 9
  Zero half: 43

Explored 1 nodes (23858 simplex iterations) in 3.29 seconds (2.26 work units)
Thread count was 4 (of 64 available processors)

Solution count 1: 10

Optimal solution found (tolerance 1.00e-04)
Best objective 1.000000000000e+01, best bound 1.000000000000e+01, gap 0.0000%


********** Begin model0.sol *************

# Solution for model breaks
# Objective value = 10
P#1 0
P#2 0
P#3 0
P#4 0
P#5 0
P#6 0
P#7 0
P#8 1
P#9 0
P#10 1
P#12 0
P#13 0
P#14 1
P#15 0
P#16 0
P#17 1
P#18 0
P#19 0
P#20 0
P#21 1
P#22 1
P#23 0
P#24 0
P#25 0
P#26 1
P#27 0
P#28 0
P#29 1
P#30 0
P#31 0
P#33 1
P#34 0
P#35 1
P#36 0
P#37 0
P#38 0
P#39 0
P#40 0
P#41 0
P#42 0
P#32 1
P#11 1
X#1#42 0
X#1#41 0
X#1#40 0
X#1#39 0
X#1#38 0
X#1#37 0
X#1#36 0
X#1#35 0
X#1#34 0
X#1#33 0
X#1#32 1
X#1#31 0
X#1#30 0
X#1#29 0
X#1#28 0
X#1#27 0
X#1#26 0
X#1#25 0
X#1#24 0
X#1#23 0
X#1#22 0
X#1#21 0
X#1#20 0
X#1#19 0
X#1#18 0
X#1#17 0
X#1#16 0
X#1#15 0
X#1#14 0
X#1#13 0
X#1#12 0
X#1#11 0
X#1#10 0
X#1#9 0
X#1#8 0
X#1#7 0
X#1#6 0
X#1#5 0
X#1#4 0
X#1#3 0
X#1#2 0
X#1#1 0
X#2#42 0
X#2#41 0
X#2#40 0
X#2#39 0
X#2#38 0
X#2#37 0
X#2#36 0
X#2#35 1
X#2#34 0
X#2#33 0
X#2#32 0
X#2#31 0
X#2#30 0
X#2#29 0
X#2#28 0
X#2#27 0
X#2#26 0
X#2#25 0
X#2#24 0
X#2#23 0
X#2#22 0
X#2#21 0
X#2#20 0
X#2#19 0
X#2#18 0
X#2#17 0
X#2#16 0
X#2#15 0
X#2#14 0
X#2#13 0
X#2#12 0
X#2#11 0
X#2#10 0
X#2#9 0
X#2#8 0
X#2#7 0
X#2#6 0
X#2#5 0
X#2#4 0
X#2#3 0
X#2#2 0
X#2#1 0
X#3#42 0
X#3#41 0
X#3#40 0
X#3#39 0
X#3#38 0
X#3#37 0
X#3#36 0
X#3#35 0
X#3#34 0
X#3#33 0
X#3#32 0
X#3#31 0
X#3#30 0
X#3#29 0
X#3#28 0
X#3#27 0
X#3#26 0
X#3#25 0
X#3#24 0
X#3#23 0
X#3#22 1
X#3#21 0
X#3#20 0
X#3#19 0
X#3#18 0
X#3#17 0
X#3#16 0
X#3#15 0
X#3#14 0
X#3#13 0
X#3#12 0
X#3#11 0
X#3#10 0
X#3#9 0
X#3#8 0
X#3#7 0
X#3#6 0
X#3#5 0
X#3#4 0
X#3#3 0
X#3#2 0
X#3#1 0
X#4#42 0
X#4#41 0
X#4#40 0
X#4#39 0
X#4#38 0
X#4#37 0
X#4#36 0
X#4#35 0
X#4#34 0
X#4#33 0
X#4#32 0
X#4#31 0
X#4#30 0
X#4#29 0
X#4#28 0
X#4#27 0
X#4#26 1
X#4#25 0
X#4#24 0
X#4#23 0
X#4#22 0
X#4#21 0
X#4#20 0
X#4#19 0
X#4#18 0
X#4#17 0
X#4#16 0
X#4#15 0
X#4#14 0
X#4#13 0
X#4#12 0
X#4#11 0
X#4#10 0
X#4#9 0
X#4#8 0
X#4#7 0
X#4#6 0
X#4#5 0
X#4#4 0
X#4#3 0
X#4#2 0
X#4#1 0
X#5#42 0
X#5#41 0
X#5#40 0
X#5#39 0
X#5#38 0
X#5#37 0
X#5#36 0
X#5#35 0
X#5#34 0
X#5#33 1
X#5#32 0
X#5#31 0
X#5#30 0
X#5#29 0
X#5#28 0
X#5#27 0
X#5#26 0
X#5#25 0
X#5#24 0
X#5#23 0
X#5#22 0
X#5#21 0
X#5#20 0
X#5#19 0
X#5#18 0
X#5#17 0
X#5#16 0
X#5#15 0
X#5#14 0
X#5#13 0
X#5#12 0
X#5#11 0
X#5#10 0
X#5#9 0
X#5#8 0
X#5#7 0
X#5#6 0
X#5#5 0
X#5#4 0
X#5#3 0
X#5#2 0
X#5#1 0
X#6#42 0
X#6#41 0
X#6#40 0
X#6#39 0
X#6#38 0
X#6#37 0
X#6#36 0
X#6#35 0
X#6#34 0
X#6#33 0
X#6#32 0
X#6#31 0
X#6#30 0
X#6#29 0
X#6#28 0
X#6#27 0
X#6#26 0
X#6#25 0
X#6#24 0
X#6#23 0
X#6#22 0
X#6#21 0
X#6#20 0
X#6#19 0
X#6#18 0
X#6#17 0
X#6#16 0
X#6#15 0
X#6#14 0
X#6#13 0
X#6#12 0
X#6#11 0
X#6#10 1
X#6#9 0
X#6#8 0
X#6#7 0
X#6#6 0
X#6#5 0
X#6#4 0
X#6#3 0
X#6#2 0
X#6#1 0
X#7#42 0
X#7#41 0
X#7#40 0
X#7#39 0
X#7#38 0
X#7#37 0
X#7#36 0
X#7#35 0
X#7#34 0
X#7#33 0
X#7#32 0
X#7#31 0
X#7#30 0
X#7#29 0
X#7#28 0
X#7#27 0
X#7#26 0
X#7#25 0
X#7#24 0
X#7#23 0
X#7#22 0
X#7#21 0
X#7#20 0
X#7#19 0
X#7#18 0
X#7#17 1
X#7#16 0
X#7#15 0
X#7#14 0
X#7#13 0
X#7#12 0
X#7#11 0
X#7#10 0
X#7#9 0
X#7#8 0
X#7#7 0
X#7#6 0
X#7#5 0
X#7#4 0
X#7#3 0
X#7#2 0
X#7#1 0
X#8#42 0
X#8#41 0
X#8#40 0
X#8#39 0
X#8#38 0
X#8#37 0
X#8#36 0
X#8#35 0
X#8#34 0
X#8#33 0
X#8#32 0
X#8#31 0
X#8#30 0
X#8#29 0
X#8#28 0
X#8#27 0
X#8#26 0
X#8#25 0
X#8#24 0
X#8#23 0
X#8#22 0
X#8#21 0
X#8#20 0
X#8#19 0
X#8#18 0
X#8#17 0
X#8#16 0
X#8#15 0
X#8#14 0
X#8#13 0
X#8#12 0
X#8#11 1
X#8#10 0
X#8#9 0
X#8#8 0
X#8#7 0
X#8#6 0
X#8#5 0
X#8#4 0
X#8#3 0
X#8#2 0
X#8#1 0
X#9#42 0
X#9#41 0
X#9#40 0
X#9#39 0
X#9#38 0
X#9#37 0
X#9#36 0
X#9#35 0
X#9#34 0
X#9#33 0
X#9#32 0
X#9#31 0
X#9#30 0
X#9#29 0
X#9#28 0
X#9#27 0
X#9#26 0
X#9#25 0
X#9#24 0
X#9#23 0
X#9#22 0
X#9#21 1
X#9#20 0
X#9#19 0
X#9#18 0
X#9#17 0
X#9#16 0
X#9#15 0
X#9#14 0
X#9#13 0
X#9#12 0
X#9#11 0
X#9#10 0
X#9#9 0
X#9#8 0
X#9#7 0
X#9#6 0
X#9#5 0
X#9#4 0
X#9#3 0
X#9#2 0
X#9#1 0
X#10#42 0
X#10#41 0
X#10#40 0
X#10#39 0
X#10#38 0
X#10#37 0
X#10#36 0
X#10#35 0
X#10#34 0
X#10#33 0
X#10#32 0
X#10#31 0
X#10#30 0
X#10#29 0
X#10#28 0
X#10#27 0
X#10#26 0
X#10#25 0
X#10#24 0
X#10#23 0
X#10#22 0
X#10#21 0
X#10#20 0
X#10#19 0
X#10#18 0
X#10#17 0
X#10#16 0
X#10#15 0
X#10#14 1
X#10#13 0
X#10#12 0
X#10#11 0
X#10#10 0
X#10#9 0
X#10#8 0
X#10#7 0
X#10#6 0
X#10#5 0
X#10#4 0
X#10#3 0
X#10#2 0
X#10#1 0
X#11#42 0
X#11#41 0
X#11#40 0
X#11#39 0
X#11#38 0
X#11#37 0
X#11#36 0
X#11#35 0
X#11#34 0
X#11#33 0
X#11#32 0
X#11#31 0
X#11#30 0
X#11#29 1
X#11#28 0
X#11#27 0
X#11#26 0
X#11#25 0
X#11#24 0
X#11#23 0
X#11#22 0
X#11#21 0
X#11#20 0
X#11#19 0
X#11#18 0
X#11#17 0
X#11#16 0
X#11#15 0
X#11#14 0
X#11#13 0
X#11#12 0
X#11#11 0
X#11#10 0
X#11#9 0
X#11#8 0
X#11#7 0
X#11#6 0
X#11#5 0
X#11#4 0
X#11#3 0
X#11#2 0
X#11#1 0
X#12#42 0
X#12#41 0
X#12#40 0
X#12#39 0
X#12#38 0
X#12#37 0
X#12#36 0
X#12#35 0
X#12#34 0
X#12#33 0
X#12#32 0
X#12#31 0
X#12#30 0
X#12#29 0
X#12#28 0
X#12#27 0
X#12#26 0
X#12#25 0
X#12#24 0
X#12#23 0
X#12#22 0
X#12#21 0
X#12#20 0
X#12#19 0
X#12#18 0
X#12#17 0
X#12#16 0
X#12#15 0
X#12#14 0
X#12#13 0
X#12#12 0
X#12#11 0
X#12#10 0
X#12#9 0
X#12#8 1
X#12#7 0
X#12#6 0
X#12#5 0
X#12#4 0
X#12#3 0
X#12#2 0
X#12#1 0
L#1#1 1
L#1#2 0
L#1#3 1
L#1#4 0
L#1#5 1
L#1#6 0
L#1#7 1
L#1#8 0
L#1#9 1
L#1#10 0
L#1#11 1
L#2#1 1
L#2#2 0
L#2#3 1
L#2#4 0
L#2#5 1
L#2#6 0
L#2#7 1
L#2#8 1
L#2#9 0
L#2#10 1
L#2#11 0
L#3#1 1
L#3#2 0
L#3#3 0
L#3#4 1
L#3#5 0
L#3#6 1
L#3#7 0
L#3#8 1
L#3#9 0
L#3#10 1
L#3#11 0
L#4#1 1
L#4#2 0
L#4#3 1
L#4#4 0
L#4#5 0
L#4#6 1
L#4#7 0
L#4#8 1
L#4#9 0
L#4#10 1
L#4#11 0
L#5#1 1
L#5#2 0
L#5#3 1
L#5#4 0
L#5#5 1
L#5#6 0
L#5#7 1
L#5#8 0
L#5#9 1
L#5#10 1
L#5#11 0
L#6#1 0
L#6#2 1
L#6#3 0
L#6#4 1
L#6#5 0
L#6#6 1
L#6#7 0
L#6#8 1
L#6#9 0
L#6#10 0
L#6#11 1
L#7#1 0
L#7#2 1
L#7#3 0
L#7#4 1
L#7#5 1
L#7#6 0
L#7#7 1
L#7#8 0
L#7#9 1
L#7#10 0
L#7#11 1
L#8#1 0
L#8#2 1
L#8#3 0
L#8#4 1
L#8#5 0
L#8#6 1
L#8#7 0
L#8#8 1
L#8#9 0
L#8#10 1
L#8#11 0
L#9#1 0
L#9#2 1
L#9#3 1
L#9#4 0
L#9#5 1
L#9#6 0
L#9#7 1
L#9#8 0
L#9#9 1
L#9#10 0
L#9#11 1
L#10#1 0
L#10#2 1
L#10#3 0
L#10#4 1
L#10#5 0
L#10#6 1
L#10#7 1
L#10#8 0
L#10#9 1
L#10#10 0
L#10#11 1
L#11#1 1
L#11#2 0
L#11#3 1
L#11#4 0
L#11#5 1
L#11#6 0
L#11#7 0
L#11#8 1
L#11#9 0
L#11#10 1
L#11#11 0
L#12#1 0
L#12#2 1
L#12#3 0
L#12#4 1
L#12#5 0
L#12#6 1
L#12#7 0
L#12#8 0
L#12#9 1
L#12#10 0
L#12#11 1
F#1#12#1 1
F#1#11#1 0
F#1#10#1 0
F#1#9#1 0
F#1#8#1 0
F#1#7#1 0
F#1#6#1 0
F#1#5#1 0
F#1#4#1 0
F#1#3#1 0
F#1#2#1 0
F#1#12#2 0
F#1#11#2 0
F#1#10#2 0
F#1#9#2 0
F#1#8#2 0
F#1#7#2 0
F#1#6#2 0
F#1#5#2 0
F#1#4#2 0
F#1#3#2 0
F#1#2#2 0
F#1#12#3 0
F#1#11#3 0
F#1#10#3 1
F#1#9#3 0
F#1#8#3 0
F#1#7#3 0
F#1#6#3 0
F#1#5#3 0
F#1#4#3 0
F#1#3#3 0
F#1#2#3 0
F#1#12#4 0
F#1#11#4 0
F#1#10#4 0
F#1#9#4 0
F#1#8#4 0
F#1#7#4 0
F#1#6#4 0
F#1#5#4 0
F#1#4#4 0
F#1#3#4 0
F#1#2#4 0
F#1#12#5 0
F#1#11#5 0
F#1#10#5 0
F#1#9#5 0
F#1#8#5 0
F#1#7#5 0
F#1#6#5 1
F#1#5#5 0
F#1#4#5 0
F#1#3#5 0
F#1#2#5 0
F#1#12#6 0
F#1#11#6 0
F#1#10#6 0
F#1#9#6 0
F#1#8#6 0
F#1#7#6 0
F#1#6#6 0
F#1#5#6 0
F#1#4#6 0
F#1#3#6 0
F#1#2#6 0
F#1#12#7 0
F#1#11#7 0
F#1#10#7 0
F#1#9#7 0
F#1#8#7 0
F#1#7#7 0
F#1#6#7 0
F#1#5#7 0
F#1#4#7 0
F#1#3#7 1
F#1#2#7 0
F#1#12#8 0
F#1#11#8 0
F#1#10#8 0
F#1#9#8 0
F#1#8#8 0
F#1#7#8 0
F#1#6#8 0
F#1#5#8 0
F#1#4#8 0
F#1#3#8 0
F#1#2#8 0
F#1#12#9 0
F#1#11#9 0
F#1#10#9 0
F#1#9#9 0
F#1#8#9 0
F#1#7#9 0
F#1#6#9 0
F#1#5#9 0
F#1#4#9 0
F#1#3#9 0
F#1#2#9 1
F#1#12#10 0
F#1#11#10 0
F#1#10#10 0
F#1#9#10 0
F#1#8#10 0
F#1#7#10 0
F#1#6#10 0
F#1#5#10 0
F#1#4#10 0
F#1#3#10 0
F#1#2#10 0
F#1#12#11 0
F#1#11#11 1
F#1#10#11 0
F#1#9#11 0
F#1#8#11 0
F#1#7#11 0
F#1#6#11 0
F#1#5#11 0
F#1#4#11 0
F#1#3#11 0
F#1#2#11 0
F#2#12#1 0
F#2#11#1 0
F#2#10#1 0
F#2#9#1 1
F#2#8#1 0
F#2#7#1 0
F#2#6#1 0
F#2#5#1 0
F#2#4#1 0
F#2#3#1 0
F#2#1#1 0
F#2#12#2 0
F#2#11#2 0
F#2#10#2 0
F#2#9#2 0
F#2#8#2 0
F#2#7#2 0
F#2#6#2 0
F#2#5#2 0
F#2#4#2 0
F#2#3#2 0
F#2#1#2 0
F#2#12#3 1
F#2#11#3 0
F#2#10#3 0
F#2#9#3 0
F#2#8#3 0
F#2#7#3 0
F#2#6#3 0
F#2#5#3 0
F#2#4#3 0
F#2#3#3 0
F#2#1#3 0
F#2#12#4 0
F#2#11#4 0
F#2#10#4 0
F#2#9#4 0
F#2#8#4 0
F#2#7#4 0
F#2#6#4 0
F#2#5#4 0
F#2#4#4 0
F#2#3#4 0
F#2#1#4 0
F#2#12#5 0
F#2#11#5 0
F#2#10#5 0
F#2#9#5 0
F#2#8#5 1
F#2#7#5 0
F#2#6#5 0
F#2#5#5 0
F#2#4#5 0
F#2#3#5 0
F#2#1#5 0
F#2#12#6 0
F#2#11#6 0
F#2#10#6 0
F#2#9#6 0
F#2#8#6 0
F#2#7#6 0
F#2#6#6 0
F#2#5#6 0
F#2#4#6 0
F#2#3#6 0
F#2#1#6 0
F#2#12#7 0
F#2#11#7 1
F#2#10#7 0
F#2#9#7 0
F#2#8#7 0
F#2#7#7 0
F#2#6#7 0
F#2#5#7 0
F#2#4#7 0
F#2#3#7 0
F#2#1#7 0
F#2#12#8 0
F#2#11#8 0
F#2#10#8 0
F#2#9#8 0
F#2#8#8 0
F#2#7#8 0
F#2#6#8 0
F#2#5#8 1
F#2#4#8 0
F#2#3#8 0
F#2#1#8 0
F#2#12#9 0
F#2#11#9 0
F#2#10#9 0
F#2#9#9 0
F#2#8#9 0
F#2#7#9 0
F#2#6#9 0
F#2#5#9 0
F#2#4#9 0
F#2#3#9 0
F#2#1#9 0
F#2#12#10 0
F#2#11#10 0
F#2#10#10 0
F#2#9#10 0
F#2#8#10 0
F#2#7#10 1
F#2#6#10 0
F#2#5#10 0
F#2#4#10 0
F#2#3#10 0
F#2#1#10 0
F#2#12#11 0
F#2#11#11 0
F#2#10#11 0
F#2#9#11 0
F#2#8#11 0
F#2#7#11 0
F#2#6#11 0
F#2#5#11 0
F#2#4#11 0
F#2#3#11 0
F#2#1#11 0
F#3#12#1 0
F#3#11#1 0
F#3#10#1 0
F#3#9#1 0
F#3#8#1 1
F#3#7#1 0
F#3#6#1 0
F#3#5#1 0
F#3#4#1 0
F#3#2#1 0
F#3#1#1 0
F#3#12#2 0
F#3#11#2 0
F#3#10#2 0
F#3#9#2 0
F#3#8#2 0
F#3#7#2 0
F#3#6#2 0
F#3#5#2 0
F#3#4#2 0
F#3#2#2 0
F#3#1#2 0
F#3#12#3 0
F#3#11#3 0
F#3#10#3 0
F#3#9#3 0
F#3#8#3 0
F#3#7#3 0
F#3#6#3 0
F#3#5#3 0
F#3#4#3 0
F#3#2#3 0
F#3#1#3 0
F#3#12#4 0
F#3#11#4 0
F#3#10#4 0
F#3#9#4 0
F#3#8#4 0
F#3#7#4 0
F#3#6#4 0
F#3#5#4 0
F#3#4#4 0
F#3#2#4 1
F#3#1#4 0
F#3#12#5 0
F#3#11#5 0
F#3#10#5 0
F#3#9#5 0
F#3#8#5 0
F#3#7#5 0
F#3#6#5 0
F#3#5#5 0
F#3#4#5 0
F#3#2#5 0
F#3#1#5 0
F#3#12#6 0
F#3#11#6 1
F#3#10#6 0
F#3#9#6 0
F#3#8#6 0
F#3#7#6 0
F#3#6#6 0
F#3#5#6 0
F#3#4#6 0
F#3#2#6 0
F#3#1#6 0
F#3#12#7 0
F#3#11#7 0
F#3#10#7 0
F#3#9#7 0
F#3#8#7 0
F#3#7#7 0
F#3#6#7 0
F#3#5#7 0
F#3#4#7 0
F#3#2#7 0
F#3#1#7 0
F#3#12#8 0
F#3#11#8 0
F#3#10#8 0
F#3#9#8 1
F#3#8#8 0
F#3#7#8 0
F#3#6#8 0
F#3#5#8 0
F#3#4#8 0
F#3#2#8 0
F#3#1#8 0
F#3#12#9 0
F#3#11#9 0
F#3#10#9 0
F#3#9#9 0
F#3#8#9 0
F#3#7#9 0
F#3#6#9 0
F#3#5#9 0
F#3#4#9 0
F#3#2#9 0
F#3#1#9 0
F#3#12#10 1
F#3#11#10 0
F#3#10#10 0
F#3#9#10 0
F#3#8#10 0
F#3#7#10 0
F#3#6#10 0
F#3#5#10 0
F#3#4#10 0
F#3#2#10 0
F#3#1#10 0
F#3#12#11 0
F#3#11#11 0
F#3#10#11 0
F#3#9#11 0
F#3#8#11 0
F#3#7#11 0
F#3#6#11 0
F#3#5#11 0
F#3#4#11 0
F#3#2#11 0
F#3#1#11 0
F#4#12#1 0
F#4#11#1 0
F#4#10#1 0
F#4#9#1 0
F#4#8#1 0
F#4#7#1 1
F#4#6#1 0
F#4#5#1 0
F#4#3#1 0
F#4#2#1 0
F#4#1#1 0
F#4#12#2 0
F#4#11#2 0
F#4#10#2 0
F#4#9#2 0
F#4#8#2 0
F#4#7#2 0
F#4#6#2 0
F#4#5#2 0
F#4#3#2 0
F#4#2#2 0
F#4#1#2 0
F#4#12#3 0
F#4#11#3 0
F#4#10#3 0
F#4#9#3 0
F#4#8#3 0
F#4#7#3 0
F#4#6#3 0
F#4#5#3 0
F#4#3#3 1
F#4#2#3 0
F#4#1#3 0
F#4#12#4 0
F#4#11#4 0
F#4#10#4 0
F#4#9#4 0
F#4#8#4 0
F#4#7#4 0
F#4#6#4 0
F#4#5#4 0
F#4#3#4 0
F#4#2#4 0
F#4#1#4 0
F#4#12#5 0
F#4#11#5 0
F#4#10#5 0
F#4#9#5 0
F#4#8#5 0
F#4#7#5 0
F#4#6#5 0
F#4#5#5 0
F#4#3#5 0
F#4#2#5 0
F#4#1#5 0
F#4#12#6 0
F#4#11#6 0
F#4#10#6 0
F#4#9#6 0
F#4#8#6 0
F#4#7#6 0
F#4#6#6 0
F#4#5#6 0
F#4#3#6 0
F#4#2#6 1
F#4#1#6 0
F#4#12#7 0
F#4#11#7 0
F#4#10#7 0
F#4#9#7 0
F#4#8#7 0
F#4#7#7 0
F#4#6#7 0
F#4#5#7 0
F#4#3#7 0
F#4#2#7 0
F#4#1#7 0
F#4#12#8 0
F#4#11#8 0
F#4#10#8 0
F#4#9#8 0
F#4#8#8 0
F#4#7#8 0
F#4#6#8 0
F#4#5#8 0
F#4#3#8 0
F#4#2#8 0
F#4#1#8 1
F#4#12#9 0
F#4#11#9 0
F#4#10#9 0
F#4#9#9 0
F#4#8#9 0
F#4#7#9 0
F#4#6#9 0
F#4#5#9 0
F#4#3#9 0
F#4#2#9 0
F#4#1#9 0
F#4#12#10 0
F#4#11#10 0
F#4#10#10 1
F#4#9#10 0
F#4#8#10 0
F#4#7#10 0
F#4#6#10 0
F#4#5#10 0
F#4#3#10 0
F#4#2#10 0
F#4#1#10 0
F#4#12#11 0
F#4#11#11 0
F#4#10#11 0
F#4#9#11 0
F#4#8#11 0
F#4#7#11 0
F#4#6#11 0
F#4#5#11 0
F#4#3#11 0
F#4#2#11 0
F#4#1#11 0
F#5#12#1 0
F#5#11#1 0
F#5#10#1 0
F#5#9#1 0
F#5#8#1 0
F#5#7#1 0
F#5#6#1 1
F#5#4#1 0
F#5#3#1 0
F#5#2#1 0
F#5#1#1 0
F#5#12#2 0
F#5#11#2 0
F#5#10#2 0
F#5#9#2 0
F#5#8#2 0
F#5#7#2 0
F#5#6#2 0
F#5#4#2 0
F#5#3#2 0
F#5#2#2 0
F#5#1#2 0
F#5#12#3 0
F#5#11#3 0
F#5#10#3 0
F#5#9#3 0
F#5#8#3 1
F#5#7#3 0
F#5#6#3 0
F#5#4#3 0
F#5#3#3 0
F#5#2#3 0
F#5#1#3 0
F#5#12#4 0
F#5#11#4 0
F#5#10#4 0
F#5#9#4 0
F#5#8#4 0
F#5#7#4 0
F#5#6#4 0
F#5#4#4 0
F#5#3#4 0
F#5#2#4 0
F#5#1#4 0
F#5#12#5 0
F#5#11#5 0
F#5#10#5 0
F#5#9#5 0
F#5#8#5 0
F#5#7#5 0
F#5#6#5 0
F#5#4#5 0
F#5#3#5 1
F#5#2#5 0
F#5#1#5 0
F#5#12#6 0
F#5#11#6 0
F#5#10#6 0
F#5#9#6 0
F#5#8#6 0
F#5#7#6 0
F#5#6#6 0
F#5#4#6 0
F#5#3#6 0
F#5#2#6 0
F#5#1#6 0
F#5#12#7 0
F#5#11#7 0
F#5#10#7 0
F#5#9#7 0
F#5#8#7 0
F#5#7#7 0
F#5#6#7 0
F#5#4#7 1
F#5#3#7 0
F#5#2#7 0
F#5#1#7 0
F#5#12#8 0
F#5#11#8 0
F#5#10#8 0
F#5#9#8 0
F#5#8#8 0
F#5#7#8 0
F#5#6#8 0
F#5#4#8 0
F#5#3#8 0
F#5#2#8 0
F#5#1#8 0
F#5#12#9 0
F#5#11#9 1
F#5#10#9 0
F#5#9#9 0
F#5#8#9 0
F#5#7#9 0
F#5#6#9 0
F#5#4#9 0
F#5#3#9 0
F#5#2#9 0
F#5#1#9 0
F#5#12#10 0
F#5#11#10 0
F#5#10#10 0
F#5#9#10 0
F#5#8#10 0
F#5#7#10 0
F#5#6#10 0
F#5#4#10 0
F#5#3#10 0
F#5#2#10 0
F#5#1#10 1
F#5#12#11 0
F#5#11#11 0
F#5#10#11 0
F#5#9#11 0
F#5#8#11 0
F#5#7#11 0
F#5#6#11 0
F#5#4#11 0
F#5#3#11 0
F#5#2#11 0
F#5#1#11 0
F#6#12#1 0
F#6#11#1 0
F#6#10#1 0
F#6#9#1 0
F#6#8#1 0
F#6#7#1 0
F#6#5#1 0
F#6#4#1 0
F#6#3#1 0
F#6#2#1 0
F#6#1#1 0
F#6#12#2 0
F#6#11#2 0
F#6#10#2 0
F#6#9#2 0
F#6#8#2 0
F#6#7#2 0
F#6#5#2 0
F#6#4#2 0
F#6#3#2 0
F#6#2#2 1
F#6#1#2 0
F#6#12#3 0
F#6#11#3 0
F#6#10#3 0
F#6#9#3 0
F#6#8#3 0
F#6#7#3 0
F#6#5#3 0
F#6#4#3 0
F#6#3#3 0
F#6#2#3 0
F#6#1#3 0
F#6#12#4 0
F#6#11#4 0
F#6#10#4 0
F#6#9#4 0
F#6#8#4 0
F#6#7#4 0
F#6#5#4 0
F#6#4#4 1
F#6#3#4 0
F#6#2#4 0
F#6#1#4 0
F#6#12#5 0
F#6#11#5 0
F#6#10#5 0
F#6#9#5 0
F#6#8#5 0
F#6#7#5 0
F#6#5#5 0
F#6#4#5 0
F#6#3#5 0
F#6#2#5 0
F#6#1#5 0
F#6#12#6 0
F#6#11#6 0
F#6#10#6 0
F#6#9#6 1
F#6#8#6 0
F#6#7#6 0
F#6#5#6 0
F#6#4#6 0
F#6#3#6 0
F#6#2#6 0
F#6#1#6 0
F#6#12#7 0
F#6#11#7 0
F#6#10#7 0
F#6#9#7 0
F#6#8#7 0
F#6#7#7 0
F#6#5#7 0
F#6#4#7 0
F#6#3#7 0
F#6#2#7 0
F#6#1#7 0
F#6#12#8 0
F#6#11#8 0
F#6#10#8 1
F#6#9#8 0
F#6#8#8 0
F#6#7#8 0
F#6#5#8 0
F#6#4#8 0
F#6#3#8 0
F#6#2#8 0
F#6#1#8 0
F#6#12#9 0
F#6#11#9 0
F#6#10#9 0
F#6#9#9 0
F#6#8#9 0
F#6#7#9 0
F#6#5#9 0
F#6#4#9 0
F#6#3#9 0
F#6#2#9 0
F#6#1#9 0
F#6#12#10 0
F#6#11#10 0
F#6#10#10 0
F#6#9#10 0
F#6#8#10 0
F#6#7#10 0
F#6#5#10 0
F#6#4#10 0
F#6#3#10 0
F#6#2#10 0
F#6#1#10 0
F#6#12#11 0
F#6#11#11 0
F#6#10#11 0
F#6#9#11 0
F#6#8#11 0
F#6#7#11 0
F#6#5#11 0
F#6#4#11 0
F#6#3#11 1
F#6#2#11 0
F#6#1#11 0
F#7#12#1 0
F#7#11#1 0
F#7#10#1 0
F#7#9#1 0
F#7#8#1 0
F#7#6#1 0
F#7#5#1 0
F#7#4#1 0
F#7#3#1 0
F#7#2#1 0
F#7#1#1 0
F#7#12#2 0
F#7#11#2 0
F#7#10#2 0
F#7#9#2 0
F#7#8#2 0
F#7#6#2 0
F#7#5#2 1
F#7#4#2 0
F#7#3#2 0
F#7#2#2 0
F#7#1#2 0
F#7#12#3 0
F#7#11#3 0
F#7#10#3 0
F#7#9#3 0
F#7#8#3 0
F#7#6#3 0
F#7#5#3 0
F#7#4#3 0
F#7#3#3 0
F#7#2#3 0
F#7#1#3 0
F#7#12#4 0
F#7#11#4 0
F#7#10#4 0
F#7#9#4 0
F#7#8#4 0
F#7#6#4 0
F#7#5#4 0
F#7#4#4 0
F#7#3#4 0
F#7#2#4 0
F#7#1#4 1
F#7#12#5 0
F#7#11#5 0
F#7#10#5 1
F#7#9#5 0
F#7#8#5 0
F#7#6#5 0
F#7#5#5 0
F#7#4#5 0
F#7#3#5 0
F#7#2#5 0
F#7#1#5 0
F#7#12#6 0
F#7#11#6 0
F#7#10#6 0
F#7#9#6 0
F#7#8#6 0
F#7#6#6 0
F#7#5#6 0
F#7#4#6 0
F#7#3#6 0
F#7#2#6 0
F#7#1#6 0
F#7#12#7 0
F#7#11#7 0
F#7#10#7 0
F#7#9#7 0
F#7#8#7 0
F#7#6#7 1
F#7#5#7 0
F#7#4#7 0
F#7#3#7 0
F#7#2#7 0
F#7#1#7 0
F#7#12#8 0
F#7#11#8 0
F#7#10#8 0
F#7#9#8 0
F#7#8#8 0
F#7#6#8 0
F#7#5#8 0
F#7#4#8 0
F#7#3#8 0
F#7#2#8 0
F#7#1#8 0
F#7#12#9 0
F#7#11#9 0
F#7#10#9 0
F#7#9#9 0
F#7#8#9 0
F#7#6#9 0
F#7#5#9 0
F#7#4#9 0
F#7#3#9 1
F#7#2#9 0
F#7#1#9 0
F#7#12#10 0
F#7#11#10 0
F#7#10#10 0
F#7#9#10 0
F#7#8#10 0
F#7#6#10 0
F#7#5#10 0
F#7#4#10 0
F#7#3#10 0
F#7#2#10 0
F#7#1#10 0
F#7#12#11 0
F#7#11#11 0
F#7#10#11 0
F#7#9#11 0
F#7#8#11 1
F#7#6#11 0
F#7#5#11 0
F#7#4#11 0
F#7#3#11 0
F#7#2#11 0
F#7#1#11 0
F#8#12#1 0
F#8#11#1 0
F#8#10#1 0
F#8#9#1 0
F#8#7#1 0
F#8#6#1 0
F#8#5#1 0
F#8#4#1 0
F#8#3#1 0
F#8#2#1 0
F#8#1#1 0
F#8#12#2 0
F#8#11#2 0
F#8#10#2 0
F#8#9#2 0
F#8#7#2 0
F#8#6#2 0
F#8#5#2 0
F#8#4#2 1
F#8#3#2 0
F#8#2#2 0
F#8#1#2 0
F#8#12#3 0
F#8#11#3 0
F#8#10#3 0
F#8#9#3 0
F#8#7#3 0
F#8#6#3 0
F#8#5#3 0
F#8#4#3 0
F#8#3#3 0
F#8#2#3 0
F#8#1#3 0
F#8#12#4 0
F#8#11#4 1
F#8#10#4 0
F#8#9#4 0
F#8#7#4 0
F#8#6#4 0
F#8#5#4 0
F#8#4#4 0
F#8#3#4 0
F#8#2#4 0
F#8#1#4 0
F#8#12#5 0
F#8#11#5 0
F#8#10#5 0
F#8#9#5 0
F#8#7#5 0
F#8#6#5 0
F#8#5#5 0
F#8#4#5 0
F#8#3#5 0
F#8#2#5 0
F#8#1#5 0
F#8#12#6 0
F#8#11#6 0
F#8#10#6 0
F#8#9#6 0
F#8#7#6 0
F#8#6#6 0
F#8#5#6 0
F#8#4#6 0
F#8#3#6 0
F#8#2#6 0
F#8#1#6 1
F#8#12#7 0
F#8#11#7 0
F#8#10#7 0
F#8#9#7 0
F#8#7#7 0
F#8#6#7 0
F#8#5#7 0
F#8#4#7 0
F#8#3#7 0
F#8#2#7 0
F#8#1#7 0
F#8#12#8 1
F#8#11#8 0
F#8#10#8 0
F#8#9#8 0
F#8#7#8 0
F#8#6#8 0
F#8#5#8 0
F#8#4#8 0
F#8#3#8 0
F#8#2#8 0
F#8#1#8 0
F#8#12#9 0
F#8#11#9 0
F#8#10#9 0
F#8#9#9 0
F#8#7#9 0
F#8#6#9 0
F#8#5#9 0
F#8#4#9 0
F#8#3#9 0
F#8#2#9 0
F#8#1#9 0
F#8#12#10 0
F#8#11#10 0
F#8#10#10 0
F#8#9#10 0
F#8#7#10 0
F#8#6#10 1
F#8#5#10 0
F#8#4#10 0
F#8#3#10 0
F#8#2#10 0
F#8#1#10 0
F#8#12#11 0
F#8#11#11 0
F#8#10#11 0
F#8#9#11 0
F#8#7#11 0
F#8#6#11 0
F#8#5#11 0
F#8#4#11 0
F#8#3#11 0
F#8#2#11 0
F#8#1#11 0
F#9#12#1 0
F#9#11#1 0
F#9#10#1 0
F#9#8#1 0
F#9#7#1 0
F#9#6#1 0
F#9#5#1 0
F#9#4#1 0
F#9#3#1 0
F#9#2#1 0
F#9#1#1 0
F#9#12#2 0
F#9#11#2 0
F#9#10#2 0
F#9#8#2 0
F#9#7#2 0
F#9#6#2 0
F#9#5#2 0
F#9#4#2 0
F#9#3#2 0
F#9#2#2 0
F#9#1#2 1
F#9#12#3 0
F#9#11#3 0
F#9#10#3 0
F#9#8#3 0
F#9#7#3 1
F#9#6#3 0
F#9#5#3 0
F#9#4#3 0
F#9#3#3 0
F#9#2#3 0
F#9#1#3 0
F#9#12#4 0
F#9#11#4 0
F#9#10#4 0
F#9#8#4 0
F#9#7#4 0
F#9#6#4 0
F#9#5#4 0
F#9#4#4 0
F#9#3#4 0
F#9#2#4 0
F#9#1#4 0
F#9#12#5 1
F#9#11#5 0
F#9#10#5 0
F#9#8#5 0
F#9#7#5 0
F#9#6#5 0
F#9#5#5 0
F#9#4#5 0
F#9#3#5 0
F#9#2#5 0
F#9#1#5 0
F#9#12#6 0
F#9#11#6 0
F#9#10#6 0
F#9#8#6 0
F#9#7#6 0
F#9#6#6 0
F#9#5#6 0
F#9#4#6 0
F#9#3#6 0
F#9#2#6 0
F#9#1#6 0
F#9#12#7 0
F#9#11#7 0
F#9#10#7 0
F#9#8#7 1
F#9#7#7 0
F#9#6#7 0
F#9#5#7 0
F#9#4#7 0
F#9#3#7 0
F#9#2#7 0
F#9#1#7 0
F#9#12#8 0
F#9#11#8 0
F#9#10#8 0
F#9#8#8 0
F#9#7#8 0
F#9#6#8 0
F#9#5#8 0
F#9#4#8 0
F#9#3#8 0
F#9#2#8 0
F#9#1#8 0
F#9#12#9 0
F#9#11#9 0
F#9#10#9 0
F#9#8#9 0
F#9#7#9 0
F#9#6#9 0
F#9#5#9 0
F#9#4#9 1
F#9#3#9 0
F#9#2#9 0
F#9#1#9 0
F#9#12#10 0
F#9#11#10 0
F#9#10#10 0
F#9#8#10 0
F#9#7#10 0
F#9#6#10 0
F#9#5#10 0
F#9#4#10 0
F#9#3#10 0
F#9#2#10 0
F#9#1#10 0
F#9#12#11 0
F#9#11#11 0
F#9#10#11 0
F#9#8#11 0
F#9#7#11 0
F#9#6#11 0
F#9#5#11 1
F#9#4#11 0
F#9#3#11 0
F#9#2#11 0
F#9#1#11 0
F#10#12#1 0
F#10#11#1 0
F#10#9#1 0
F#10#8#1 0
F#10#7#1 0
F#10#6#1 0
F#10#5#1 0
F#10#4#1 0
F#10#3#1 0
F#10#2#1 0
F#10#1#1 0
F#10#12#2 0
F#10#11#2 0
F#10#9#2 0
F#10#8#2 0
F#10#7#2 0
F#10#6#2 0
F#10#5#2 0
F#10#4#2 0
F#10#3#2 1
F#10#2#2 0
F#10#1#2 0
F#10#12#3 0
F#10#11#3 0
F#10#9#3 0
F#10#8#3 0
F#10#7#3 0
F#10#6#3 0
F#10#5#3 0
F#10#4#3 0
F#10#3#3 0
F#10#2#3 0
F#10#1#3 0
F#10#12#4 0
F#10#11#4 0
F#10#9#4 1
F#10#8#4 0
F#10#7#4 0
F#10#6#4 0
F#10#5#4 0
F#10#4#4 0
F#10#3#4 0
F#10#2#4 0
F#10#1#4 0
F#10#12#5 0
F#10#11#5 0
F#10#9#5 0
F#10#8#5 0
F#10#7#5 0
F#10#6#5 0
F#10#5#5 0
F#10#4#5 0
F#10#3#5 0
F#10#2#5 0
F#10#1#5 0
F#10#12#6 0
F#10#11#6 0
F#10#9#6 0
F#10#8#6 0
F#10#7#6 0
F#10#6#6 0
F#10#5#6 1
F#10#4#6 0
F#10#3#6 0
F#10#2#6 0
F#10#1#6 0
F#10#12#7 1
F#10#11#7 0
F#10#9#7 0
F#10#8#7 0
F#10#7#7 0
F#10#6#7 0
F#10#5#7 0
F#10#4#7 0
F#10#3#7 0
F#10#2#7 0
F#10#1#7 0
F#10#12#8 0
F#10#11#8 0
F#10#9#8 0
F#10#8#8 0
F#10#7#8 0
F#10#6#8 0
F#10#5#8 0
F#10#4#8 0
F#10#3#8 0
F#10#2#8 0
F#10#1#8 0
F#10#12#9 0
F#10#11#9 0
F#10#9#9 0
F#10#8#9 1
F#10#7#9 0
F#10#6#9 0
F#10#5#9 0
F#10#4#9 0
F#10#3#9 0
F#10#2#9 0
F#10#1#9 0
F#10#12#10 0
F#10#11#10 0
F#10#9#10 0
F#10#8#10 0
F#10#7#10 0
F#10#6#10 0
F#10#5#10 0
F#10#4#10 0
F#10#3#10 0
F#10#2#10 0
F#10#1#10 0
F#10#12#11 0
F#10#11#11 0
F#10#9#11 0
F#10#8#11 0
F#10#7#11 0
F#10#6#11 0
F#10#5#11 0
F#10#4#11 0
F#10#3#11 0
F#10#2#11 1
F#10#1#11 0
F#11#12#1 0
F#11#10#1 1
F#11#9#1 0
F#11#8#1 0
F#11#7#1 0
F#11#6#1 0
F#11#5#1 0
F#11#4#1 0
F#11#3#1 0
F#11#2#1 0
F#11#1#1 0
F#11#12#2 0
F#11#10#2 0
F#11#9#2 0
F#11#8#2 0
F#11#7#2 0
F#11#6#2 0
F#11#5#2 0
F#11#4#2 0
F#11#3#2 0
F#11#2#2 0
F#11#1#2 0
F#11#12#3 0
F#11#10#3 0
F#11#9#3 0
F#11#8#3 0
F#11#7#3 0
F#11#6#3 1
F#11#5#3 0
F#11#4#3 0
F#11#3#3 0
F#11#2#3 0
F#11#1#3 0
F#11#12#4 0
F#11#10#4 0
F#11#9#4 0
F#11#8#4 0
F#11#7#4 0
F#11#6#4 0
F#11#5#4 0
F#11#4#4 0
F#11#3#4 0
F#11#2#4 0
F#11#1#4 0
F#11#12#5 0
F#11#10#5 0
F#11#9#5 0
F#11#8#5 0
F#11#7#5 0
F#11#6#5 0
F#11#5#5 0
F#11#4#5 1
F#11#3#5 0
F#11#2#5 0
F#11#1#5 0
F#11#12#6 0
F#11#10#6 0
F#11#9#6 0
F#11#8#6 0
F#11#7#6 0
F#11#6#6 0
F#11#5#6 0
F#11#4#6 0
F#11#3#6 0
F#11#2#6 0
F#11#1#6 0
F#11#12#7 0
F#11#10#7 0
F#11#9#7 0
F#11#8#7 0
F#11#7#7 0
F#11#6#7 0
F#11#5#7 0
F#11#4#7 0
F#11#3#7 0
F#11#2#7 0
F#11#1#7 0
F#11#12#8 0
F#11#10#8 0
F#11#9#8 0
F#11#8#8 0
F#11#7#8 1
F#11#6#8 0
F#11#5#8 0
F#11#4#8 0
F#11#3#8 0
F#11#2#8 0
F#11#1#8 0
F#11#12#9 0
F#11#10#9 0
F#11#9#9 0
F#11#8#9 0
F#11#7#9 0
F#11#6#9 0
F#11#5#9 0
F#11#4#9 0
F#11#3#9 0
F#11#2#9 0
F#11#1#9 0
F#11#12#10 0
F#11#10#10 0
F#11#9#10 1
F#11#8#10 0
F#11#7#10 0
F#11#6#10 0
F#11#5#10 0
F#11#4#10 0
F#11#3#10 0
F#11#2#10 0
F#11#1#10 0
F#11#12#11 0
F#11#10#11 0
F#11#9#11 0
F#11#8#11 0
F#11#7#11 0
F#11#6#11 0
F#11#5#11 0
F#11#4#11 0
F#11#3#11 0
F#11#2#11 0
F#11#1#11 0
F#12#11#1 0
F#12#10#1 0
F#12#9#1 0
F#12#8#1 0
F#12#7#1 0
F#12#6#1 0
F#12#5#1 0
F#12#4#1 0
F#12#3#1 0
F#12#2#1 0
F#12#1#1 0
F#12#11#2 1
F#12#10#2 0
F#12#9#2 0
F#12#8#2 0
F#12#7#2 0
F#12#6#2 0
F#12#5#2 0
F#12#4#2 0
F#12#3#2 0
F#12#2#2 0
F#12#1#2 0
F#12#11#3 0
F#12#10#3 0
F#12#9#3 0
F#12#8#3 0
F#12#7#3 0
F#12#6#3 0
F#12#5#3 0
F#12#4#3 0
F#12#3#3 0
F#12#2#3 0
F#12#1#3 0
F#12#11#4 0
F#12#10#4 0
F#12#9#4 0
F#12#8#4 0
F#12#7#4 0
F#12#6#4 0
F#12#5#4 1
F#12#4#4 0
F#12#3#4 0
F#12#2#4 0
F#12#1#4 0
F#12#11#5 0
F#12#10#5 0
F#12#9#5 0
F#12#8#5 0
F#12#7#5 0
F#12#6#5 0
F#12#5#5 0
F#12#4#5 0
F#12#3#5 0
F#12#2#5 0
F#12#1#5 0
F#12#11#6 0
F#12#10#6 0
F#12#9#6 0
F#12#8#6 0
F#12#7#6 1
F#12#6#6 0
F#12#5#6 0
F#12#4#6 0
F#12#3#6 0
F#12#2#6 0
F#12#1#6 0
F#12#11#7 0
F#12#10#7 0
F#12#9#7 0
F#12#8#7 0
F#12#7#7 0
F#12#6#7 0
F#12#5#7 0
F#12#4#7 0
F#12#3#7 0
F#12#2#7 0
F#12#1#7 0
F#12#11#8 0
F#12#10#8 0
F#12#9#8 0
F#12#8#8 0
F#12#7#8 0
F#12#6#8 0
F#12#5#8 0
F#12#4#8 0
F#12#3#8 0
F#12#2#8 0
F#12#1#8 0
F#12#11#9 0
F#12#10#9 0
F#12#9#9 0
F#12#8#9 0
F#12#7#9 0
F#12#6#9 1
F#12#5#9 0
F#12#4#9 0
F#12#3#9 0
F#12#2#9 0
F#12#1#9 0
F#12#11#10 0
F#12#10#10 0
F#12#9#10 0
F#12#8#10 0
F#12#7#10 0
F#12#6#10 0
F#12#5#10 0
F#12#4#10 0
F#12#3#10 0
F#12#2#10 0
F#12#1#10 0
F#12#11#11 0
F#12#10#11 0
F#12#9#11 0
F#12#8#11 0
F#12#7#11 0
F#12#6#11 0
F#12#5#11 0
F#12#4#11 1
F#12#3#11 0
F#12#2#11 0
F#12#1#11 0

********** End model0.sol ***************



Additional Output:
15789494-CRPtNUIe-solver-output.zip
NEOS Server Home